10
0 49 66 76 52 90 81 93 102 43
37 0 39 75 91 16 68 52 22 34
43 15 0 97 47 6 67 70 12 21
43 89 58 0 41 40 2 30 13 31
58 1 15 52 0 60 89 51 10 29
84 45 80 48 67 0 42 63 23 32
27 69 3 50 18 51 0 85 88 23
52 16 85 12 35 77 29 0 14 32
52 16 85 12 35 77 29 22 0 32
52 16 85 12 35 77 29 99 14 0

